(set-logic ALL)
(declare-fun var0 () String)
(assert (str.in_re var0 (re.++ (re.+ (re.* (str.to_re "000"))) (re.++ (re.* (re.union (str.to_re "111") (str.to_re "222"))) (re.++ (re.* (re.* (str.to_re "333"))) (re.++ (re.union (re.+ (str.to_re "4")) (re.+ (str.to_re "5"))) (re.++ (re.union (re.union (str.to_re "666") (str.to_re "7")) (re.union (str.to_re "888") (str.to_re "9"))) (re.++ (re.union (re.+ (str.to_re "aa")) (re.+ (str.to_re "b"))) (re.++ (re.* (re.union (str.to_re "ccc") (str.to_re "dd"))) (re.++ (re.+ (re.+ (str.to_re "ee"))) (re.++ (re.union (re.union (str.to_re "f") (str.to_re "g")) (re.union (str.to_re "hhh") (str.to_re "ii"))) (re.++ (re.+ (re.+ (str.to_re "jjj"))) (re.++ (re.* (re.* (str.to_re "kkk"))) (re.++ (re.union (re.+ (str.to_re "lll")) (re.+ (str.to_re "mmm"))) (re.++ (re.+ (re.* (str.to_re "n"))) (re.++ (re.* (re.* (str.to_re "ooo"))) (re.++ (re.* (re.+ (str.to_re "ppp"))) (re.++ (re.+ (re.* (str.to_re "qq"))) (re.++ (re.* (re.union (str.to_re "rr") (str.to_re "s"))) (re.++ (re.* (re.* (str.to_re "t"))) (re.++ (re.union (re.+ (str.to_re "uuu")) (re.+ (str.to_re "v"))) (re.++ (re.* (re.union (str.to_re "w") (str.to_re "xxx"))) (re.* (re.union (str.to_re "y") (str.to_re "zzz")))))))))))))))))))))))))
(assert (not (str.in_re var0 (re.++ (re.* (re.+ (str.to_re "000"))) (re.++ (re.* (re.+ (str.to_re "11"))) (re.++ (re.+ (re.union (str.to_re "222") (str.to_re "3"))) (re.++ (re.* (re.* (str.to_re "4"))) (re.++ (re.* (re.+ (str.to_re "55"))) (re.++ (re.+ (re.* (str.to_re "6"))) (re.++ (re.* (re.* (str.to_re "7"))) (re.++ (re.union (re.* (str.to_re "8")) (re.* (str.to_re "999"))) (re.++ (re.+ (re.+ (str.to_re "aaa"))) (re.++ (re.+ (re.union (str.to_re "b") (str.to_re "cc"))) (re.++ (re.+ (re.+ (str.to_re "dd"))) (re.++ (re.* (re.union (str.to_re "eee") (str.to_re "fff"))) (re.++ (re.union (re.+ (str.to_re "ggg")) (re.+ (str.to_re "hh"))) (re.++ (re.+ (re.* (str.to_re "iii"))) (re.++ (re.* (re.+ (str.to_re "jjj"))) (re.++ (re.union (re.union (str.to_re "kkk") (str.to_re "l")) (re.union (str.to_re "mmm") (str.to_re "nnn"))) (re.++ (re.union (re.union (str.to_re "oo") (str.to_re "ppp")) (re.union (str.to_re "qq") (str.to_re "r"))) (re.++ (re.+ (re.* (str.to_re "sss"))) (re.++ (re.* (re.* (str.to_re "ttt"))) (re.++ (re.+ (re.+ (str.to_re "u"))) (re.+ (re.* (str.to_re "vvv"))))))))))))))))))))))))))
(check-sat)